CMPL model generation - running

CMPL version: 1.11.0
Authors: Thomas Schleiff, Mike Steglich
Distributed under the GPLv3 

create model instance ...
write model instance ...
CMPL model generation - finished

Solver - running


Welcome to IBM(R) ILOG(R) CPLEX(R) Interactive Optimizer 12.7.1.0
  with Simplex, Mixed Integer & Barrier Optimizers
5725-A06 5725-A29 5724-Y48 5724-Y49 5724-Y54 5724-Y55 5655-Y21
Copyright IBM Corp. 1988, 2017.  All Rights Reserved.

Type 'help' for a list of available commands.
Type 'help' followed by a command name for more
information on commands.

CPLEX> Specified objective sense: MINIMIZE
Selected objective  name:  line[1]
Selected RHS        name:  RHS
Selected bound      name:  BOUND
Problem '/tmp/cmpl.T24300.mps' read.
Read time = 0.07 sec. (10.13 ticks)
CPLEX> CPXPARAM_Read_APIEncoding                        "UTF-8"
Tried aggregator 3 times.
MIP Presolve eliminated 23937 rows and 37451 columns.
MIP Presolve modified 425 coefficients.
Aggregator did 823 substitutions.
Reduced MIP has 3162 rows, 4181 columns, and 12369 nonzeros.
Reduced MIP has 3971 binaries, 0 generals, 0 SOSs, and 0 indicators.
Presolve time = 0.06 sec. (52.13 ticks)
Found incumbent of value 1176.079996 after 0.11 sec. (81.68 ticks)
Probing fixed 21 vars, tightened 0 bounds.
Probing time = 0.02 sec. (5.43 ticks)
Tried aggregator 1 time.
MIP Presolve eliminated 0 rows and 21 columns.
MIP Presolve modified 122 coefficients.
Reduced MIP has 3162 rows, 4160 columns, and 12327 nonzeros.
Reduced MIP has 4160 binaries, 0 generals, 0 SOSs, and 0 indicators.
Presolve time = 0.01 sec. (10.56 ticks)
Probing time = 0.01 sec. (2.84 ticks)
Clique table members: 7587.
MIP emphasis: balance optimality and feasibility.
MIP search method: dynamic search.
Parallel mode: none, using 1 thread.
Root relaxation solution time = 0.01 sec. (7.77 ticks)

        Nodes                                         Cuts/
   Node  Left     Objective  IInf  Best Integer    Best Bound    ItCnt     Gap

*     0+    0                         1176.0800      -20.0971           101.71%
      0     0      295.3486     6     1176.0800      295.3486      263   74.89%
*     0+    0                          295.4857      295.3486             0.05%
*     0     0      integral     0      295.4171      Cuts: 12      267    0.00%
      0     0        cutoff            295.4171      295.4171      267    0.00%
Elapsed time = 0.20 sec. (130.21 ticks, tree = 0.01 MB, solutions = 3)

GUB cover cuts applied:  2
Cover cuts applied:  6
Gomory fractional cuts applied:  4

Root node processing (before b&c):
  Real time             =    0.20 sec. (131.98 ticks)
Sequential b&c:
  Real time             =    0.00 sec. (0.00 ticks)
                          ------------
Total (root+branch&cut) =    0.20 sec. (131.98 ticks)

Solution pool: 3 solutions saved.

MIP - Integer optimal solution:  Objective =  2.9541713900e+02
Solution time =    0.20 sec.  Iterations = 267  Nodes = 0
Deterministic time = 132.11 ticks  (644.87 ticks/sec)

CPLEX> Incumbent solution written to file '/tmp/cmpl.T24300.gsol'.
CPLEX> 
CMPL: Time used for model generation: 1 seconds
CMPL: Time used for solving the model: 1 seconds


Solution written to ASCII file: results/output_generated_conf_0.6/2015-11-02-5/fair-nonlinear.sol

Solver - finished
